
;this file is automatically generated: Fri Jan 03 16:26:56 GMT 2020

;declarations generated

(declare-fun oclExcludes ( Int Int) Bool)
(declare-fun Cardinality ( Int) Int)
(declare-fun obj_ec8094bb_f6b3_40f6_9222_0913a829223f ( Int) Int)
(declare-fun class7_Class7IntAttr3 ( Int) Int)
(declare-fun class7_Class7IntAttr2 ( Int) Int)
(declare-fun oclSelect ( Int Bool) Int)
(declare-fun Enum0 ( Int) Int)
(declare-fun Enum1 ( Int) Int)
(declare-fun Enum2 ( Int) Int)
(declare-fun container_ ( Int) Int)
(declare-fun class7_Class7BoolAttr0 ( Int) Bool)
(declare-fun class7_Class7BoolAttr1 ( Int) Bool)
(declare-fun oclIncludes ( Int Int) Bool)
(declare-fun type_e2930d97_2884_4e59_b8cb_0be3da508e6b_Class7 ( Int) Bool)
(declare-fun ObjAt ( Int Int) Int)

;formula(s) generated
(assert (! (forall ((c7_2 Int)(c7_1 Int)) (=> (and ( type_e2930d97_2884_4e59_b8cb_0be3da508e6b_Class7 c7_1 )  ( type_e2930d97_2884_4e59_b8cb_0be3da508e6b_Class7 c7_2 ) ) (> ( class7_Class7IntAttr2 ( obj_ec8094bb_f6b3_40f6_9222_0913a829223f c7_1 )  )  ( class7_Class7IntAttr3 ( obj_ec8094bb_f6b3_40f6_9222_0913a829223f c7_2 )  ) ))):named l0))
(assert (! (or (forall ((v Int)) (=> ( type_e2930d97_2884_4e59_b8cb_0be3da508e6b_Class7 v )  ( class7_Class7BoolAttr1 ( obj_ec8094bb_f6b3_40f6_9222_0913a829223f v )  ) )) (forall ((v Int)) (=> ( type_e2930d97_2884_4e59_b8cb_0be3da508e6b_Class7 v )  ( class7_Class7BoolAttr0 ( obj_ec8094bb_f6b3_40f6_9222_0913a829223f v )  ) ))):named l1))
(assert (! (or (or (forall ((c7_2 Int)(c7_1 Int)) (=> (and ( type_e2930d97_2884_4e59_b8cb_0be3da508e6b_Class7 c7_1 )  ( type_e2930d97_2884_4e59_b8cb_0be3da508e6b_Class7 c7_2 ) ) (>= ( class7_Class7IntAttr3 ( obj_ec8094bb_f6b3_40f6_9222_0913a829223f c7_1 )  )  ( class7_Class7IntAttr2 ( obj_ec8094bb_f6b3_40f6_9222_0913a829223f c7_2 )  ) ))) (forall ((v Int)) (=> ( type_e2930d97_2884_4e59_b8cb_0be3da508e6b_Class7 v )  (= ( class7_Class7IntAttr2 ( obj_ec8094bb_f6b3_40f6_9222_0913a829223f v )  )  9)))) (and (forall ((v Int)) (=> ( type_e2930d97_2884_4e59_b8cb_0be3da508e6b_Class7 v )  ( class7_Class7BoolAttr1 ( obj_ec8094bb_f6b3_40f6_9222_0913a829223f v )  ) )) (forall ((v Int)) (=> ( type_e2930d97_2884_4e59_b8cb_0be3da508e6b_Class7 v )  ( class7_Class7BoolAttr0 ( obj_ec8094bb_f6b3_40f6_9222_0913a829223f v )  ) )))):named l2))
(assert (! (forall ((v Int)) (=> ( type_e2930d97_2884_4e59_b8cb_0be3da508e6b_Class7 v )  (or (or ( class7_Class7BoolAttr1 ( obj_ec8094bb_f6b3_40f6_9222_0913a829223f v )  )  (and (forall ((v Int)) (=> ( type_e2930d97_2884_4e59_b8cb_0be3da508e6b_Class7 v )  ( class7_Class7BoolAttr0 ( obj_ec8094bb_f6b3_40f6_9222_0913a829223f v )  ) )) (forall ((v Int)) (=> ( type_e2930d97_2884_4e59_b8cb_0be3da508e6b_Class7 v )  ( class7_Class7BoolAttr1 ( obj_ec8094bb_f6b3_40f6_9222_0913a829223f v )  ) )))) (or (forall ((v Int)) (=> ( type_e2930d97_2884_4e59_b8cb_0be3da508e6b_Class7 v )  (>= ( class7_Class7IntAttr3 ( obj_ec8094bb_f6b3_40f6_9222_0913a829223f v )  )  8))) (forall ((v Int)) (=> ( type_e2930d97_2884_4e59_b8cb_0be3da508e6b_Class7 v )  ( class7_Class7BoolAttr0 ( obj_ec8094bb_f6b3_40f6_9222_0913a829223f v )  ) )))))):named l3))
(assert (! (forall ((v Int)) (=> ( type_e2930d97_2884_4e59_b8cb_0be3da508e6b_Class7 v )  (or (= ( class7_Class7IntAttr3 ( obj_ec8094bb_f6b3_40f6_9222_0913a829223f v )  )  12) (or (forall ((c7_2 Int)(c7_1 Int)) (=> (and ( type_e2930d97_2884_4e59_b8cb_0be3da508e6b_Class7 c7_1 )  ( type_e2930d97_2884_4e59_b8cb_0be3da508e6b_Class7 c7_2 ) ) (>= ( class7_Class7IntAttr2 ( obj_ec8094bb_f6b3_40f6_9222_0913a829223f c7_1 )  )  ( class7_Class7IntAttr3 ( obj_ec8094bb_f6b3_40f6_9222_0913a829223f c7_2 )  ) ))) (forall ((v Int)) (=> ( type_e2930d97_2884_4e59_b8cb_0be3da508e6b_Class7 v )  (not (= ( class7_Class7IntAttr3 ( obj_ec8094bb_f6b3_40f6_9222_0913a829223f v )  )  19) ))))))):named l4))
(assert (! (exists ((c1 Int)(c2 Int)) (and (and ( type_e2930d97_2884_4e59_b8cb_0be3da508e6b_Class7 c1 )  ( type_e2930d97_2884_4e59_b8cb_0be3da508e6b_Class7 c2 ) ) (and ( class7_Class7BoolAttr1 ( obj_ec8094bb_f6b3_40f6_9222_0913a829223f c1 )  )  ( class7_Class7BoolAttr0 ( obj_ec8094bb_f6b3_40f6_9222_0913a829223f c2 )  ) ))):named l5))
(assert (! (exists ((c1 Int)(c2 Int)) (and (and ( type_e2930d97_2884_4e59_b8cb_0be3da508e6b_Class7 c1 )  ( type_e2930d97_2884_4e59_b8cb_0be3da508e6b_Class7 c2 ) ) (forall ((v Int)) (=> ( type_e2930d97_2884_4e59_b8cb_0be3da508e6b_Class7 v )  (not (= ( class7_Class7IntAttr3 ( obj_ec8094bb_f6b3_40f6_9222_0913a829223f v )  )  ( class7_Class7IntAttr2 ( obj_ec8094bb_f6b3_40f6_9222_0913a829223f c1 )  ) ) ))))):named l6))
(assert (exists ((o Int)) ( type_e2930d97_2884_4e59_b8cb_0be3da508e6b_Class7 ( obj_ec8094bb_f6b3_40f6_9222_0913a829223f o )  ) ))

 ;end of formula 